#
# ORCA Job.
#
%pointcharges "/home/igorchem/programs/pDynamo3/scratch/orcaScratch/orcaJob.pc"
! ENGRAD BOHRS B3LYP 6-31G* EXTREMESCF SCFCONV10 
% output
print [ p_mos ] 1
print [ p_overlap ] 5
end # output%maxcore 500
%pal
nprocs 8
end

* xyz 0 1
O                   2.6815213840        0.0000000000        0.1128166502
H                   3.0460495553        0.0000000000       -1.6559670112
H                   0.8409281296        0.0000000000        0.1696974068
*
